c description: Random 3-CNF over 22 variables and 94 clauses
c generator: CNFgen (0.9.2)
c copyright: (C) 2012-2022 Massimo Lauria <massimo.lauria@uniroma1.it>
c url: https://massimolauria.net/cnfgen
c command line: cnfgen --output CNF_4.28/22_bit_94_263.cnf randkcnf 3 22 94
c
p cnf 22 94
10 -18 -20 0
-1 7 12 0
6 12 -17 0
3 4 16 0
5 -17 -18 0
-14 -17 20 0
5 -13 -16 0
3 -11 15 0
-12 13 15 0
-12 14 -18 0
-1 -4 13 0
5 8 -20 0
3 -4 21 0
-4 -16 17 0
-9 18 21 0
-1 -14 -22 0
-7 13 21 0
-3 -9 -17 0
-12 15 -18 0
8 14 -18 0
15 16 -22 0
-8 -13 -22 0
-11 -12 14 0
7 -10 13 0
-8 -11 -17 0
-3 10 -21 0
-2 20 22 0
3 11 -12 0
-5 -13 -19 0
-15 18 -20 0
-1 11 -12 0
2 -4 17 0
4 5 13 0
-3 -9 -21 0
5 -11 -15 0
5 -6 -15 0
-2 -16 -20 0
1 -7 16 0
5 -15 21 0
-12 -20 22 0
11 16 -17 0
-8 16 22 0
-12 -16 22 0
10 -12 -15 0
2 -3 -13 0
-10 17 -20 0
-2 -12 -21 0
-2 11 13 0
2 12 -15 0
-6 11 -18 0
-2 -17 20 0
4 -9 -20 0
-9 -13 -14 0
-4 -11 14 0
-9 -13 -15 0
-9 -10 22 0
9 -10 11 0
-2 14 15 0
16 17 -21 0
-6 -8 20 0
-16 -19 22 0
-3 -5 -22 0
16 -21 22 0
18 21 -22 0
-10 16 20 0
-9 -12 22 0
8 18 19 0
-3 -12 -18 0
2 -9 13 0
-5 -6 -10 0
-5 11 22 0
-12 -16 -22 0
-4 5 -18 0
-1 2 -8 0
7 8 22 0
13 18 -21 0
11 12 -18 0
9 15 16 0
3 -12 16 0
2 3 13 0
-1 -9 -14 0
10 18 -21 0
3 -4 13 0
2 7 -17 0
7 -9 18 0
-13 -17 -20 0
5 6 13 0
2 -10 17 0
1 2 9 0
4 -11 -17 0
-2 20 21 0
-5 12 17 0
7 11 -22 0
1 3 -6 0
